NAME : d198.10557.tour
COMMENT : Length = 10557
COMMENT : Found by LKH [Keld Helsgaun] Sat May 25 06:41:05 2013
TYPE : TOUR
DIMENSION : 40
TOUR_SECTION
1
3
5
10
11
71
56
55
54
62
76
91
106
111
118
123
139
158
159
138
131
127
137
172
166
191
187
195
194
175
176
182
168
167
25
21
22
17
15
40
-1
EOF
